p edge 56
e 0 28
e 0 43
e 0 46
e 0 50
e 1 9
e 1 21
e 1 25
e 1 27
e 1 44
e 2 3
e 2 23
e 2 26
e 2 35
e 2 54
e 3 54
e 4 13
e 4 29
e 4 31
e 4 35
e 5 16
e 5 21
e 5 38
e 5 44
e 5 48
e 5 49
e 6 7
e 6 15
e 6 17
e 6 20
e 7 16
e 7 20
e 7 38
e 8 18
e 8 27
e 8 30
e 8 41
e 8 45
e 8 55
e 9 14
e 9 18
e 9 27
e 10 22
e 10 47
e 10 51
e 11 24
e 11 34
e 11 42
e 11 55
e 12 30
e 12 42
e 12 43
e 12 53
e 12 55
e 13 28
e 13 29
e 13 35
e 13 46
e 13 54
e 14 18
e 14 43
e 14 45
e 14 50
e 15 17
e 15 32
e 15 36
e 15 37
e 16 38
e 16 49
e 17 20
e 17 32
e 17 38
e 17 48
e 18 27
e 18 45
e 19 42
e 19 46
e 19 47
e 19 53
e 19 54
e 20 38
e 21 44
e 21 49
e 22 47
e 22 54
e 23 35
e 23 54
e 24 42
e 24 51
e 25 27
e 25 44
e 26 35
e 27 41
e 27 44
e 28 29
e 28 39
e 28 46
e 28 50
e 28 52
e 29 31
e 29 40
e 29 52
e 30 43
e 30 45
e 30 55
e 31 35
e 31 40
e 32 34
e 32 37
e 32 48
e 33 34
e 33 41
e 33 44
e 33 48
e 33 55
e 34 48
e 34 55
e 35 54
e 36 37
e 38 48
e 39 40
e 39 50
e 39 52
e 40 52
e 41 44
e 41 55
e 42 47
e 42 51
e 42 53
e 42 55
e 43 45
e 43 46
e 43 50
e 43 53
e 44 48
e 46 53
e 46 54
e 47 51
e 47 54
c k 2
